nK = 2456;
nT = 6;
nI = 14;
L = 29;
TT = 551;
np = 1;
nc = 3;
b = [20, 64, 20, 55, 34, 42, 39, 53, 33, 38, 57, 67, 55, 53];
d = [46, 131, 68, 107, 116, 74, 83, 107, 145, 113, 145, 125, 108, 87];
m = [1.9, 1.4, 1.6, 1.4, 1.3, 2.3, 1.5, 1.9, 1.7, 2.3, 2.4, 1.9, 1.3, 2.3];
pt = [0.35, 0.3, 0.22, 0.24, 0.34, 0.28];
st = [21, 14.1, 10.78, 14.4, 17.34, 16.8];
arc = {<1, 0, 1, 1, 0, 0, 0, [1, 1, 1, 1, 1, 1]>, <2, 1, 2, 1, 0, 0, 0, [1, 1, 1, 1, 1, 1]>, <3, 2, 3, 1, 0, 0, 0, [1, 1, 1, 1, 1, 1]>, <4, 3, 4, 1, 0, 0, 0, [1, 1, 1, 1, 1, 1]>, <5, 4, 5, 1, 0, 0, 0, [1, 1, 1, 1, 1, 1]>, <6, 5, 6, 1, 0, 0, 0, [1, 1, 1, 1, 1, 1]>, <7, 6, 7, 1, 0, 0, 0, [1, 1, 1, 1, 1, 1]>, <8, 7, 8, 1, 0, 0, 0, [1, 1, 1, 1, 1, 1]>, <9, 8, 9, 1, 0, 0, 0, [1, 1, 1, 1, 1, 1]>, <10, 9, 10, 1, 0, 0, 0, [1, 1, 1, 1, 1, 1]>, <11, 10, 11, 1, 0, 0, 0, [1, 1, 1, 1, 1, 1]>, <12, 11, 12, 1, 0, 0, 0, [1, 1, 1, 1, 1, 1]>, <13, 12, 13, 1, 0, 0, 0, [1, 1, 1, 1, 1, 1]>, <14, 13, 14, 1, 0, 0, 0, [1, 1, 1, 1, 1, 1]>, <15, 14, 15, 1, 0, 0, 0, [1, 1, 1, 1, 1, 1]>, <16, 15, 16, 1, 0, 0, 0, [1, 1, 1, 1, 1, 1]>, <17, 16, 17, 1, 0, 0, 0, [1, 1, 1, 1, 1, 1]>, <18, 17, 18, 1, 0, 0, 0, [1, 1, 1, 1, 1, 1]>, <19, 18, 19, 1, 0, 0, 0, [1, 1, 1, 1, 1, 1]>, <20, 19, 20, 1, 0, 0, 0, [1, 1, 1, 1, 1, 1]>, <21, 20, 21, 1, 0, 0, 0, [1, 1, 1, 1, 1, 1]>, <22, 21, 22, 1, 0, 0, 0, [1, 1, 1, 1, 1, 1]>, <23, 22, 23, 1, 0, 0, 0, [1, 1, 1, 1, 1, 1]>, <24, 23, 24, 1, 0, 0, 0, [1, 1, 1, 1, 1, 1]>, <25, 24, 25, 1, 0, 0, 0, [1, 1, 1, 1, 1, 1]>, <26, 25, 26, 1, 0, 0, 0, [1, 1, 1, 1, 1, 1]>, <27, 26, 27, 1, 0, 0, 0, [1, 1, 1, 1, 1, 1]>, <28, 27, 28, 1, 0, 0, 0, [1, 1, 1, 1, 1, 1]>, <29, 28, 29, 1, 0, 0, 0, [1, 1, 1, 1, 1, 1]>, <30, 0, 13, 13, 1, 0, 0, [0, 1, 1, 0, 0, 0]>, <31, 1, 14, 13, 1, 0, 0, [0, 1, 1, 0, 0, 0]>, <32, 2, 15, 13, 1, 0, 0, [0, 1, 1, 0, 0, 0]>, <33, 3, 16, 13, 1, 0, 0, [0, 1, 1, 0, 0, 0]>, <34, 4, 17, 13, 1, 0, 0, [0, 1, 1, 0, 0, 0]>, <35, 5, 18, 13, 1, 0, 0, [0, 1, 1, 0, 0, 0]>, <36, 7, 20, 13, 1, 0, 0, [0, 1, 1, 0, 0, 0]>, <37, 8, 21, 13, 1, 0, 0, [0, 1, 1, 0, 0, 0]>, <38, 9, 22, 13, 1, 0, 0, [0, 1, 1, 0, 0, 0]>, <39, 10, 23, 13, 1, 0, 0, [0, 1, 1, 0, 0, 0]>, <40, 11, 24, 13, 1, 0, 0, [0, 1, 1, 0, 0, 0]>, <41, 12, 25, 13, 1, 0, 0, [0, 1, 1, 0, 0, 0]>, <42, 13, 26, 13, 1, 0, 0, [0, 1, 1, 0, 0, 0]>, <43, 14, 27, 13, 1, 0, 0, [0, 1, 1, 0, 0, 0]>, <44, 15, 28, 13, 1, 0, 0, [0, 1, 1, 0, 0, 0]>, <45, 16, 29, 13, 1, 0, 0, [0, 1, 1, 0, 0, 0]>, <46, 0, 14, 14, 2, 0, 0, [0, 0, 1, 1, 0, 0]>, <47, 1, 15, 14, 2, 0, 0, [0, 0, 1, 1, 0, 0]>, <48, 2, 16, 14, 2, 0, 0, [0, 0, 1, 1, 0, 0]>, <49, 3, 17, 14, 2, 0, 0, [0, 0, 1, 1, 0, 0]>, <50, 4, 18, 14, 2, 0, 0, [0, 0, 1, 1, 0, 0]>, <51, 5, 19, 14, 2, 0, 0, [0, 0, 1, 1, 0, 0]>, <52, 6, 20, 14, 2, 0, 0, [0, 0, 1, 1, 0, 0]>, <53, 7, 21, 14, 2, 0, 0, [0, 0, 1, 1, 0, 0]>, <54, 8, 22, 14, 2, 0, 0, [0, 0, 1, 1, 0, 0]>, <55, 9, 23, 14, 2, 0, 0, [0, 0, 1, 1, 0, 0]>, <56, 10, 24, 14, 2, 0, 0, [0, 0, 1, 1, 0, 0]>, <57, 11, 25, 14, 2, 0, 0, [0, 0, 1, 1, 0, 0]>, <58, 12, 26, 14, 2, 0, 0, [0, 0, 1, 1, 0, 0]>, <59, 13, 27, 14, 2, 0, 0, [0, 0, 1, 1, 0, 0]>, <60, 14, 28, 14, 2, 0, 0, [0, 0, 1, 1, 0, 0]>, <61, 15, 29, 14, 2, 0, 0, [0, 0, 1, 1, 0, 0]>, <62, 0, 16, 16, 3, 0, 0, [0, 0, 1, 1, 0, 0]>, <63, 1, 17, 16, 3, 0, 0, [0, 0, 1, 1, 0, 0]>, <64, 2, 18, 16, 3, 0, 0, [0, 0, 1, 1, 0, 0]>, <65, 3, 19, 16, 3, 0, 0, [0, 0, 1, 1, 0, 0]>, <66, 4, 20, 16, 3, 0, 0, [0, 0, 1, 1, 0, 0]>, <67, 5, 21, 16, 3, 0, 0, [0, 0, 1, 1, 0, 0]>, <68, 6, 22, 16, 3, 0, 0, [0, 0, 1, 1, 0, 0]>, <69, 7, 23, 16, 3, 0, 0, [0, 0, 1, 1, 0, 0]>, <70, 8, 24, 16, 3, 0, 0, [0, 0, 1, 1, 0, 0]>, <71, 9, 25, 16, 3, 0, 0, [0, 0, 1, 1, 0, 0]>, <72, 10, 26, 16, 3, 0, 0, [0, 0, 1, 1, 0, 0]>, <73, 11, 27, 16, 3, 0, 0, [0, 0, 1, 1, 0, 0]>, <74, 12, 28, 16, 3, 0, 0, [0, 0, 1, 1, 0, 0]>, <75, 13, 29, 16, 3, 0, 0, [0, 0, 1, 1, 0, 0]>, <76, 0, 15, 15, 4, 0, 0, [1, 0, 0, 0, 0, 1]>, <77, 1, 16, 15, 4, 0, 0, [1, 0, 0, 0, 0, 1]>, <78, 2, 17, 15, 4, 0, 0, [1, 0, 0, 0, 0, 1]>, <79, 3, 18, 15, 4, 0, 0, [1, 0, 0, 0, 0, 1]>, <80, 4, 19, 15, 4, 0, 0, [1, 0, 0, 0, 0, 1]>, <81, 5, 20, 15, 4, 0, 0, [1, 0, 0, 0, 0, 1]>, <82, 6, 21, 15, 4, 0, 0, [1, 0, 0, 0, 0, 1]>, <83, 7, 22, 15, 4, 0, 0, [1, 0, 0, 0, 0, 1]>, <84, 8, 23, 15, 4, 0, 0, [1, 0, 0, 0, 0, 1]>, <85, 9, 24, 15, 4, 0, 0, [1, 0, 0, 0, 0, 1]>, <86, 10, 25, 15, 4, 0, 0, [1, 0, 0, 0, 0, 1]>, <87, 11, 26, 15, 4, 0, 0, [1, 0, 0, 0, 0, 1]>, <88, 12, 27, 15, 4, 0, 0, [1, 0, 0, 0, 0, 1]>, <89, 13, 28, 15, 4, 0, 0, [1, 0, 0, 0, 0, 1]>, <90, 14, 29, 15, 4, 0, 0, [1, 0, 0, 0, 0, 1]>, <91, 0, 16, 16, 5, 0, 1, [0, 0, 0, 1, 1, 0]>, <92, 1, 17, 16, 5, 0, 1, [0, 0, 0, 1, 1, 0]>, <93, 2, 18, 16, 5, 0, 1, [0, 0, 0, 1, 1, 0]>, <94, 3, 19, 16, 5, 0, 1, [0, 0, 0, 1, 1, 0]>, <95, 4, 20, 16, 5, 0, 1, [0, 0, 0, 1, 1, 0]>, <96, 5, 21, 16, 5, 0, 1, [0, 0, 0, 1, 1, 0]>, <97, 6, 22, 16, 5, 0, 1, [0, 0, 0, 1, 1, 0]>, <98, 7, 23, 16, 5, 0, 1, [0, 0, 0, 1, 1, 0]>, <99, 8, 24, 16, 5, 0, 1, [0, 0, 0, 1, 1, 0]>, <100, 9, 25, 16, 5, 0, 1, [0, 0, 0, 1, 1, 0]>, <101, 10, 26, 16, 5, 0, 1, [0, 0, 0, 1, 1, 0]>, <102, 11, 27, 16, 5, 0, 1, [0, 0, 0, 1, 1, 0]>, <103, 12, 28, 16, 5, 0, 1, [0, 0, 0, 1, 1, 0]>, <104, 13, 29, 16, 5, 0, 1, [0, 0, 0, 1, 1, 0]>, <105, 0, 15, 15, 6, 0, 0, [1, 0, 0, 0, 0, 1]>, <106, 1, 16, 15, 6, 0, 0, [1, 0, 0, 0, 0, 1]>, <107, 2, 17, 15, 6, 0, 0, [1, 0, 0, 0, 0, 1]>, <108, 3, 18, 15, 6, 0, 0, [1, 0, 0, 0, 0, 1]>, <109, 4, 19, 15, 6, 0, 0, [1, 0, 0, 0, 0, 1]>, <110, 5, 20, 15, 6, 0, 0, [1, 0, 0, 0, 0, 1]>, <111, 6, 21, 15, 6, 0, 0, [1, 0, 0, 0, 0, 1]>, <112, 7, 22, 15, 6, 0, 0, [1, 0, 0, 0, 0, 1]>, <113, 8, 23, 15, 6, 0, 0, [1, 0, 0, 0, 0, 1]>, <114, 9, 24, 15, 6, 0, 0, [1, 0, 0, 0, 0, 1]>, <115, 10, 25, 15, 6, 0, 0, [1, 0, 0, 0, 0, 1]>, <116, 11, 26, 15, 6, 0, 0, [1, 0, 0, 0, 0, 1]>, <117, 12, 27, 15, 6, 0, 0, [1, 0, 0, 0, 0, 1]>, <118, 13, 28, 15, 6, 0, 0, [1, 0, 0, 0, 0, 1]>, <119, 14, 29, 15, 6, 0, 0, [1, 0, 0, 0, 0, 1]>, <120, 0, 17, 17, 7, 0, 0, [0, 0, 1, 1, 0, 0]>, <121, 1, 18, 17, 7, 0, 0, [0, 0, 1, 1, 0, 0]>, <122, 2, 19, 17, 7, 0, 0, [0, 0, 1, 1, 0, 0]>, <123, 3, 20, 17, 7, 0, 0, [0, 0, 1, 1, 0, 0]>, <124, 4, 21, 17, 7, 0, 0, [0, 0, 1, 1, 0, 0]>, <125, 5, 22, 17, 7, 0, 0, [0, 0, 1, 1, 0, 0]>, <126, 6, 23, 17, 7, 0, 0, [0, 0, 1, 1, 0, 0]>, <127, 7, 24, 17, 7, 0, 0, [0, 0, 1, 1, 0, 0]>, <128, 8, 25, 17, 7, 0, 0, [0, 0, 1, 1, 0, 0]>, <129, 9, 26, 17, 7, 0, 0, [0, 0, 1, 1, 0, 0]>, <130, 10, 27, 17, 7, 0, 0, [0, 0, 1, 1, 0, 0]>, <131, 11, 28, 17, 7, 0, 0, [0, 0, 1, 1, 0, 0]>, <132, 12, 29, 17, 7, 0, 0, [0, 0, 1, 1, 0, 0]>, <133, 0, 15, 15, 8, 0, 1, [0, 1, 1, 0, 0, 0]>, <134, 1, 16, 15, 8, 0, 1, [0, 1, 1, 0, 0, 0]>, <135, 2, 17, 15, 8, 0, 1, [0, 1, 1, 0, 0, 0]>, <136, 3, 18, 15, 8, 0, 1, [0, 1, 1, 0, 0, 0]>, <137, 4, 19, 15, 8, 0, 1, [0, 1, 1, 0, 0, 0]>, <138, 5, 20, 15, 8, 0, 1, [0, 1, 1, 0, 0, 0]>, <139, 6, 21, 15, 8, 0, 1, [0, 1, 1, 0, 0, 0]>, <140, 7, 22, 15, 8, 0, 1, [0, 1, 1, 0, 0, 0]>, <141, 8, 23, 15, 8, 0, 1, [0, 1, 1, 0, 0, 0]>, <142, 9, 24, 15, 8, 0, 1, [0, 1, 1, 0, 0, 0]>, <143, 10, 25, 15, 8, 0, 1, [0, 1, 1, 0, 0, 0]>, <144, 11, 26, 15, 8, 0, 1, [0, 1, 1, 0, 0, 0]>, <145, 12, 27, 15, 8, 0, 1, [0, 1, 1, 0, 0, 0]>, <146, 13, 28, 15, 8, 0, 1, [0, 1, 1, 0, 0, 0]>, <147, 14, 29, 15, 8, 0, 1, [0, 1, 1, 0, 0, 0]>, <148, 0, 16, 16, 9, 0, 0, [0, 1, 1, 0, 0, 0]>, <149, 1, 17, 16, 9, 0, 0, [0, 1, 1, 0, 0, 0]>, <150, 2, 18, 16, 9, 0, 0, [0, 1, 1, 0, 0, 0]>, <151, 3, 19, 16, 9, 0, 0, [0, 1, 1, 0, 0, 0]>, <152, 4, 20, 16, 9, 0, 0, [0, 1, 1, 0, 0, 0]>, <153, 5, 21, 16, 9, 0, 0, [0, 1, 1, 0, 0, 0]>, <154, 6, 22, 16, 9, 0, 0, [0, 1, 1, 0, 0, 0]>, <155, 7, 23, 16, 9, 0, 0, [0, 1, 1, 0, 0, 0]>, <156, 8, 24, 16, 9, 0, 0, [0, 1, 1, 0, 0, 0]>, <157, 9, 25, 16, 9, 0, 0, [0, 1, 1, 0, 0, 0]>, <158, 10, 26, 16, 9, 0, 0, [0, 1, 1, 0, 0, 0]>, <159, 11, 27, 16, 9, 0, 0, [0, 1, 1, 0, 0, 0]>, <160, 12, 28, 16, 9, 0, 0, [0, 1, 1, 0, 0, 0]>, <161, 13, 29, 16, 9, 0, 0, [0, 1, 1, 0, 0, 0]>, <162, 0, 14, 14, 10, 0, 1, [0, 0, 0, 1, 1, 0]>, <163, 1, 15, 14, 10, 0, 1, [0, 0, 0, 1, 1, 0]>, <164, 2, 16, 14, 10, 0, 1, [0, 0, 0, 1, 1, 0]>, <165, 3, 17, 14, 10, 0, 1, [0, 0, 0, 1, 1, 0]>, <166, 4, 18, 14, 10, 0, 1, [0, 0, 0, 1, 1, 0]>, <167, 5, 19, 14, 10, 0, 1, [0, 0, 0, 1, 1, 0]>, <168, 6, 20, 14, 10, 0, 1, [0, 0, 0, 1, 1, 0]>, <169, 7, 21, 14, 10, 0, 1, [0, 0, 0, 1, 1, 0]>, <170, 8, 22, 14, 10, 0, 1, [0, 0, 0, 1, 1, 0]>, <171, 9, 23, 14, 10, 0, 1, [0, 0, 0, 1, 1, 0]>, <172, 10, 24, 14, 10, 0, 1, [0, 0, 0, 1, 1, 0]>, <173, 11, 25, 14, 10, 0, 1, [0, 0, 0, 1, 1, 0]>, <174, 12, 26, 14, 10, 0, 1, [0, 0, 0, 1, 1, 0]>, <175, 13, 27, 14, 10, 0, 1, [0, 0, 0, 1, 1, 0]>, <176, 14, 28, 14, 10, 0, 1, [0, 0, 0, 1, 1, 0]>, <177, 15, 29, 14, 10, 0, 1, [0, 0, 0, 1, 1, 0]>, <178, 0, 17, 17, 11, 0, 0, [0, 0, 0, 1, 1, 0]>, <179, 1, 18, 17, 11, 0, 0, [0, 0, 0, 1, 1, 0]>, <180, 2, 19, 17, 11, 0, 0, [0, 0, 0, 1, 1, 0]>, <181, 3, 20, 17, 11, 0, 0, [0, 0, 0, 1, 1, 0]>, <182, 4, 21, 17, 11, 0, 0, [0, 0, 0, 1, 1, 0]>, <183, 5, 22, 17, 11, 0, 0, [0, 0, 0, 1, 1, 0]>, <184, 6, 23, 17, 11, 0, 0, [0, 0, 0, 1, 1, 0]>, <185, 7, 24, 17, 11, 0, 0, [0, 0, 0, 1, 1, 0]>, <186, 8, 25, 17, 11, 0, 0, [0, 0, 0, 1, 1, 0]>, <187, 9, 26, 17, 11, 0, 0, [0, 0, 0, 1, 1, 0]>, <188, 10, 27, 17, 11, 0, 0, [0, 0, 0, 1, 1, 0]>, <189, 11, 28, 17, 11, 0, 0, [0, 0, 0, 1, 1, 0]>, <190, 12, 29, 17, 11, 0, 0, [0, 0, 0, 1, 1, 0]>, <191, 0, 17, 17, 12, 0, 0, [0, 0, 0, 1, 1, 0]>, <192, 1, 18, 17, 12, 0, 0, [0, 0, 0, 1, 1, 0]>, <193, 2, 19, 17, 12, 0, 0, [0, 0, 0, 1, 1, 0]>, <194, 3, 20, 17, 12, 0, 0, [0, 0, 0, 1, 1, 0]>, <195, 4, 21, 17, 12, 0, 0, [0, 0, 0, 1, 1, 0]>, <196, 5, 22, 17, 12, 0, 0, [0, 0, 0, 1, 1, 0]>, <197, 6, 23, 17, 12, 0, 0, [0, 0, 0, 1, 1, 0]>, <198, 7, 24, 17, 12, 0, 0, [0, 0, 0, 1, 1, 0]>, <199, 8, 25, 17, 12, 0, 0, [0, 0, 0, 1, 1, 0]>, <200, 9, 26, 17, 12, 0, 0, [0, 0, 0, 1, 1, 0]>, <201, 10, 27, 17, 12, 0, 0, [0, 0, 0, 1, 1, 0]>, <202, 11, 28, 17, 12, 0, 0, [0, 0, 0, 1, 1, 0]>, <203, 12, 29, 17, 12, 0, 0, [0, 0, 0, 1, 1, 0]>, <204, 0, 16, 16, 13, 0, 0, [1, 0, 0, 0, 0, 1]>, <205, 1, 17, 16, 13, 0, 0, [1, 0, 0, 0, 0, 1]>, <206, 2, 18, 16, 13, 0, 0, [1, 0, 0, 0, 0, 1]>, <207, 3, 19, 16, 13, 0, 0, [1, 0, 0, 0, 0, 1]>, <208, 4, 20, 16, 13, 0, 0, [1, 0, 0, 0, 0, 1]>, <209, 5, 21, 16, 13, 0, 0, [1, 0, 0, 0, 0, 1]>, <210, 6, 22, 16, 13, 0, 0, [1, 0, 0, 0, 0, 1]>, <211, 7, 23, 16, 13, 0, 0, [1, 0, 0, 0, 0, 1]>, <212, 8, 24, 16, 13, 0, 0, [1, 0, 0, 0, 0, 1]>, <213, 9, 25, 16, 13, 0, 0, [1, 0, 0, 0, 0, 1]>, <214, 10, 26, 16, 13, 0, 0, [1, 0, 0, 0, 0, 1]>, <215, 11, 27, 16, 13, 0, 0, [1, 0, 0, 0, 0, 1]>, <216, 12, 28, 16, 13, 0, 0, [1, 0, 0, 0, 0, 1]>, <217, 13, 29, 16, 13, 0, 0, [1, 0, 0, 0, 0, 1]>, <218, 0, 18, 18, 14, 0, 0, [0, 0, 0, 1, 1, 0]>, <219, 1, 19, 18, 14, 0, 0, [0, 0, 0, 1, 1, 0]>, <220, 2, 20, 18, 14, 0, 0, [0, 0, 0, 1, 1, 0]>, <221, 3, 21, 18, 14, 0, 0, [0, 0, 0, 1, 1, 0]>, <222, 4, 22, 18, 14, 0, 0, [0, 0, 0, 1, 1, 0]>, <223, 5, 23, 18, 14, 0, 0, [0, 0, 0, 1, 1, 0]>, <224, 6, 24, 18, 14, 0, 0, [0, 0, 0, 1, 1, 0]>, <225, 7, 25, 18, 14, 0, 0, [0, 0, 0, 1, 1, 0]>, <226, 8, 26, 18, 14, 0, 0, [0, 0, 0, 1, 1, 0]>, <227, 9, 27, 18, 14, 0, 0, [0, 0, 0, 1, 1, 0]>, <228, 10, 28, 18, 14, 0, 0, [0, 0, 0, 1, 1, 0]>, <229, 11, 29, 18, 14, 0, 0, [0, 0, 0, 1, 1, 0]>};
